(set-logic QF_LIA)
(set-info :ran/ran2.smt2)
(set-info :smt-lib-version 2.0)
(declare-fun x1 () Int)
(declare-fun x2 () Int)
(declare-fun x3 () Int)
(declare-fun x4 () Int)
(declare-fun x5 () Int)
(declare-fun x6 () Int)
(assert (<= (+ (* (- 6) x1) (* 10 x2) (* 6 x3) (* (- 9) x4) (* (- 5) x5) (* (- 8) x6) ) 61))
(assert (<= (+ (* 7 x1) (* 6 x2) (* 3 x3) (* (- 5) x4) (* (- 6) x5) (* (- 5) x6) ) 120))
(assert (<= (+ (* 4 x1) (* 8 x2) (* 1 x3) (* 0 x4) (* (- 10) x5) (* 9 x6) ) (- 47)))
(assert (<= (+ (* (- 4) x1) (* (- 2) x2) (* 2 x3) (* (- 2) x4) (* 5 x5) (* (- 2) x6) ) (- 154)))
(assert (<= (+ (* (- 9) x1) (* 3 x2) (* (- 5) x3) (* (- 7) x4) (* 2 x5) (* 10 x6) ) 70))
(assert (<= (+ (* 5 x1) (* 10 x2) (* 10 x3) (* (- 1) x4) (* 3 x5) (* 2 x6) ) (- 233)))
(assert (<= (+ (* 8 x1) (* 5 x2) (* (- 1) x3) (* (- 1) x4) (* 0 x5) (* 10 x6) ) (- 28)))
(assert (<= (+ (* 1 x1) (* 6 x2) (* (- 3) x3) (* 5 x4) (* (- 7) x5) (* 7 x6) ) 178))
(assert (<= (+ (* 6 x1) (* (- 6) x2) (* 5 x3) (* 5 x4) (* 7 x5) (* 8 x6) ) 226))
(assert (<= (+ (* (- 4) x1) (* 7 x2) (* 8 x3) (* 9 x4) (* 5 x5) (* 8 x6) ) (- 140)))
(assert (<= (+ (* (- 3) x1) (* (- 3) x2) (* 8 x3) (* (- 8) x4) (* (- 10) x5) (* (- 4) x6) ) 206))
(assert (<= (+ (* 0 x1) (* (- 7) x2) (* (- 1) x3) (* (- 10) x4) (* 7 x5) (* 4 x6) ) (- 177)))
(assert (<= (+ (* 1 x1) (* 0 x2) (* 0 x3) (* 0 x4) (* 0 x5) (* 0 x6) ) 251))
(assert (<= (+ (* (- 1) x1) (* 0 x2) (* 0 x3) (* 0 x4) (* 0 x5) (* 0 x6) ) 251))
(assert (<= (+ (* 0 x1) (* 1 x2) (* 0 x3) (* 0 x4) (* 0 x5) (* 0 x6) ) 251))
(assert (<= (+ (* 0 x1) (* (- 1) x2) (* 0 x3) (* 0 x4) (* 0 x5) (* 0 x6) ) 251))
(assert (<= (+ (* 0 x1) (* 0 x2) (* 1 x3) (* 0 x4) (* 0 x5) (* 0 x6) ) 251))
(assert (<= (+ (* 0 x1) (* 0 x2) (* (- 1) x3) (* 0 x4) (* 0 x5) (* 0 x6) ) 251))
(assert (<= (+ (* 0 x1) (* 0 x2) (* 0 x3) (* 1 x4) (* 0 x5) (* 0 x6) ) 251))
(assert (<= (+ (* 0 x1) (* 0 x2) (* 0 x3) (* (- 1) x4) (* 0 x5) (* 0 x6) ) 251))
(assert (<= (+ (* 0 x1) (* 0 x2) (* 0 x3) (* 0 x4) (* 1 x5) (* 0 x6) ) 251))
(assert (<= (+ (* 0 x1) (* 0 x2) (* 0 x3) (* 0 x4) (* (- 1) x5) (* 0 x6) ) 251))
(assert (<= (+ (* 0 x1) (* 0 x2) (* 0 x3) (* 0 x4) (* 0 x5) (* 1 x6) ) 251))
(assert (<= (+ (* 0 x1) (* 0 x2) (* 0 x3) (* 0 x4) (* 0 x5) (* (- 1) x6) ) 251))
